NAME : A-G-100-1.535_2342.tour
COMMENT : Cost = 535_2342
COMMENT : Found by LKH [Keld Helsgaun] Sat Dec 23 13:02:19 2023
TYPE : TOUR
DIMENSION : 17
TOUR_SECTION
1
10
7
12
8
15
3
5
11
17
2
13
14
6
9
16
4
-1
EOF
